tsp_instances/TSP50/instance81.tsp
NODE_COORD_SECTION
0 62 92
1 184 183
2 186 46
3 174 94
4 194 123
5 148 17
6 155 86
7 130 161
8 134 20
9 192 19
10 176 38
11 106 64
12 140 53
13 145 163
14 183 116
15 11 92
16 41 143
17 74 77
18 190 96
19 129 24
20 192 88
21 16 75
22 122 99
23 5 20
24 113 194
25 188 36
26 122 168
27 49 149
28 52 87
29 114 82
30 115 143
31 62 54
32 19 150
33 165 142
34 52 100
35 22 129
36 2 38
37 56 139
38 47 189
39 95 25
40 200 4
41 131 172
42 186 115
43 195 191
44 160 198
45 47 57
46 157 199
47 2 168
48 160 88
49 36 55
