tsp_instances/TSP50/instance81.opt.tour
TOUR_SECTION
1
18
12
30
23
31
8
14
42
27
25
47
45
44
2
34
5
43
15
19
21
4
49
7
13
11
3
26
10
41
6
9
20
40
32
46
50
24
37
22
16
36
33
48
39
28
17
38
35
29
-1